
Gurobi 12.0.3 (linux64) logging started Fri Mar 27 18:05:28 2026

Set parameter LogFile to value "/home/solar-wind/WT_Solar_results_bigM100000_thread4/case24_ieee_rts_theta0.15_epsilon0.1_gurobi_seed0_num_gen38_N_WDR300_load_scaling_factor1_EIFICA_T24_num_Solar5_num_WT10.txt"
Gurobi Optimizer version 12.0.3 build v12.0.3rc0 (linux64 - "Ubuntu 22.04.5 LTS")

CPU model: Intel(R) Xeon(R) Platinum 8378A CPU @ 3.00GHz, instruction set [SSE2|AVX|AVX2|AVX512]
Thread count: 32 physical cores, 64 logical processors, using up to 4 threads

Non-default parameters:
TimeLimit  14400
MIPGap  0.001
Threads  4

Academic license 2721591 - for non-commercial use only - registered to fa___@mails.neu.edu.cn
Optimize a model with 878228 rows, 2125 columns and 75515848 nonzeros
Model fingerprint: 0xcd729f28
Model has 912 quadratic objective terms
Coefficient statistics:
  Matrix range     [3e-07, 7e+01]
  Objective range  [2e+01, 6e+01]
  QObjective range [4e-03, 2e-02]
  Bounds range     [0e+00, 0e+00]
  RHS range        [7e-02, 1e+03]
Presolve removed 603991 rows and 0 columns (presolve time = 6s)...
Presolve removed 604865 rows and 0 columns
Presolve time: 7.94s
Presolved: 273363 rows, 2999 columns, 5779208 nonzeros
Presolved model has 912 quadratic objective terms
Elapsed ordering time = 7s
Elapsed ordering time = 26s
Ordering time: 54.84s
Elapsed ordering time = 55s
Elapsed ordering time = 60s
Elapsed ordering time = 67s
Elapsed ordering time = 70s
Elapsed ordering time = 79s
Elapsed ordering time = 81s
Elapsed ordering time = 85s
Elapsed ordering time = 91s
Elapsed ordering time = 95s
Elapsed ordering time = 104s
Elapsed ordering time = 106s
Elapsed ordering time = 110s
Elapsed ordering time = 116s
Elapsed ordering time = 120s
Ordering time: 128.40s

Barrier statistics:
 Dense cols : 1175
 AA' NZ     : 4.166e+08
 Factor NZ  : 2.343e+09 (roughly 20.0 GB of memory)
 Factor Ops : 6.949e+13 (roughly 400 seconds per iteration)
 Threads    : 4

                  Objective                Residual
Iter       Primal          Dual         Primal    Dual     Compl     Time
   0   5.46478297e+08 -2.66852724e+08  3.79e+04 9.93e+02  9.91e+05   302s
   1   5.13474150e+08 -2.43142139e+08  3.64e+04 9.52e+02  9.50e+05   303s
   2   5.07070891e+08 -3.25849541e+08  3.60e+04 9.43e+02  9.45e+05   303s
   3   4.89221129e+08 -3.80813151e+08  3.51e+04 9.19e+02  9.30e+05   304s
   4   4.31841680e+08 -4.87202382e+08  3.22e+04 8.40e+02  8.76e+05   304s
   5   3.93596159e+08 -5.83516838e+08  3.01e+04 7.84e+02  8.56e+05   305s
   6   3.54600512e+08 -6.08000539e+08  2.79e+04 7.26e+02  7.94e+05   305s
   7   3.20139789e+08 -6.33094027e+08  2.60e+04 6.73e+02  7.37e+05   305s
   8   2.86472278e+08 -6.60516216e+08  2.40e+04 6.18e+02  6.78e+05   305s
   9   2.56532755e+08 -6.91374154e+08  2.20e+04 5.68e+02  6.23e+05   306s
  10   2.29621804e+08 -7.21372895e+08  2.02e+04 5.21e+02  5.73e+05   306s
  11   2.06113831e+08 -7.50199526e+08  1.86e+04 4.79e+02  5.27e+05   306s
  12   1.87480897e+08 -7.73430649e+08  1.73e+04 4.44e+02  4.90e+05   306s
  13   1.66297158e+08 -8.07920323e+08  1.57e+04 4.02e+02  4.45e+05   306s
  14   1.44041971e+08 -8.34454516e+08  1.39e+04 3.56e+02  3.95e+05   307s
  15   1.26206645e+08 -8.63129724e+08  1.25e+04 3.18e+02  3.54e+05   307s
  16   1.09188779e+08 -8.90115506e+08  1.11e+04 2.81e+02  3.13e+05   307s
  17   9.48571599e+07 -9.12217044e+08  9.85e+03 2.48e+02  2.78e+05   307s
  18   8.25721643e+07 -9.41668964e+08  8.76e+03 2.19e+02  2.46e+05   308s
  19   7.23006561e+07 -9.66269734e+08  7.83e+03 1.95e+02  2.19e+05   308s
  20   6.32930480e+07 -9.91838532e+08  6.98e+03 1.73e+02  1.95e+05   308s
  21   5.51526074e+07 -1.01501132e+09  6.19e+03 1.52e+02  1.72e+05   308s
  22   4.69699409e+07 -1.03808530e+09  5.37e+03 1.31e+02  1.49e+05   308s
  23   4.00861689e+07 -1.05533100e+09  4.66e+03 1.13e+02  1.29e+05   309s
  24   3.20033289e+07 -1.07196529e+09  3.98e+03 9.14e+01  1.05e+05   309s
  25   2.67279592e+07 -1.07722141e+09  3.96e+03 7.69e+01  8.88e+04   309s
  26   1.97026575e+07 -1.07374218e+09  3.25e+03 5.71e+01  6.68e+04   309s
  27   5.24953118e+06 -1.01348280e+09  3.41e+03 1.45e+01  2.86e+04   309s
  28   4.70888123e+06 -9.68166348e+08  2.94e+03 1.28e+01  2.53e+04   309s
  29   4.31689320e+06 -9.30736986e+08  2.64e+03 1.16e+01  2.29e+04   310s
  30   3.67085738e+06 -8.71131724e+08  2.36e+03 9.56e+00  1.91e+04   310s
  31   2.99609511e+06 -7.92882032e+08  1.85e+03 7.49e+00  1.51e+04   310s
  32   2.40641143e+06 -7.13339854e+08  1.45e+03 5.70e+00  1.16e+04   310s
  33   2.04906543e+06 -6.50640306e+08  1.13e+03 4.58e+00  9.41e+03   310s
  34   1.74835970e+06 -6.25154093e+08  8.43e+02 3.61e+00  7.92e+03   311s
  35   1.45882563e+06 -5.52515422e+08  6.21e+02 2.67e+00  5.96e+03   311s
  36   1.21563557e+06 -5.24476232e+08  3.90e+02 1.79e+00  4.55e+03   311s
  37   9.98878647e+05 -4.39789324e+08  2.12e+02 9.80e-01  2.91e+03   312s
  38   9.26762510e+05 -3.82619864e+08  1.54e+02 7.11e-01  2.25e+03   312s
  39   8.62899630e+05 -3.22445523e+08  1.03e+02 4.72e-01  1.68e+03   313s
  40   8.33625497e+05 -2.80414680e+08  7.49e+01 3.44e-01  1.35e+03   313s
  41   8.17793446e+05 -2.48931056e+08  5.89e+01 2.71e-01  1.14e+03   314s
  42   8.05400235e+05 -2.30873946e+08  4.49e+01 2.05e-01  1.01e+03   315s
  43   7.98625546e+05 -2.18981850e+08  3.39e+01 1.56e-01  9.25e+02   316s
  44   7.97043611e+05 -2.15120930e+08  3.07e+01 1.42e-01  8.99e+02   317s
  45   7.94955279e+05 -1.96267007e+08  2.57e+01 1.18e-01  8.08e+02   319s
  46   7.94080745e+05 -1.46037956e+08  1.71e+01 7.84e-02  5.85e+02   320s
  47   7.94868717e+05 -1.19544927e+08  1.28e+01 5.90e-02  4.76e+02   323s
  48   7.96034924e+05 -1.00074653e+08  9.68e+00 4.45e-02  3.90e+02   325s
  49   7.96956609e+05 -6.96673481e+07  5.96e+00 2.73e-02  2.66e+02   327s
  50   7.96988118e+05 -4.56807899e+07  3.59e+00 1.25e-02  1.71e+02   330s
  51   7.96974154e+05 -2.35365923e+07  1.60e+00 3.91e-03  8.84e+01   337s
  52   7.95901651e+05 -6.45935232e+06  6.46e-01 8.60e-04  2.62e+01   348s
  53   7.90920724e+05 -5.83802183e+05  1.72e-01 8.55e-05  4.96e+00   366s
  54   7.63327323e+05  5.32138690e+05  2.10e-02 1.04e-05  8.34e-01   573s
  55   7.40618022e+05  6.40893766e+05  8.02e-03 3.98e-06  3.60e-01   856s
  56   7.25187849e+05  6.90033903e+05  1.24e-03 1.21e-06  1.27e-01  1452s
  57   7.20641186e+05  7.05032272e+05  2.16e-04 2.11e-07  5.63e-02  1713s
  58   7.19216537e+05  7.11392902e+05  8.99e-05 8.77e-08  2.82e-02  1975s
  59   7.18512878e+05  7.14296138e+05  1.38e-05 1.35e-08  1.52e-02  2239s
  60   7.17996036e+05  7.16767282e+05  4.60e-07 4.54e-10  4.43e-03  2503s
  61   7.17859610e+05  7.17409105e+05  1.10e-07 1.08e-10  1.63e-03  2770s
  62   7.17817982e+05  7.17593831e+05  8.68e-09 7.55e-11  8.09e-04  3039s
  63   7.17793910e+05  7.17707376e+05  6.44e-11 2.93e-11  3.12e-04  3299s
  64   7.17784600e+05  7.17751965e+05  2.03e-10 4.46e-11  1.18e-04  3558s
  65   7.17779954e+05  7.17774074e+05  9.80e-09 5.93e-11  2.12e-05  3827s
  66   7.17779518e+05  7.17776143e+05  5.22e-09 2.49e-11  1.22e-05  4092s
  67   7.17779147e+05  7.17777901e+05  1.70e-09 2.71e-11  4.49e-06  4351s
  68   7.17779007e+05  7.17778563e+05  1.19e-09 1.87e-11  1.60e-06  4620s
  69   7.17778933e+05  7.17778914e+05  1.63e-09 9.55e-12  6.77e-08  4884s
  70   7.17778932e+05  7.17778915e+05  2.39e-07 1.14e-11  6.35e-08  5146s
  71   7.17778931e+05  7.17778921e+05  8.09e-06 1.87e-10  3.79e-08  5408s
  72   7.17778931e+05  7.17778921e+05  8.19e-06 9.75e-11  3.66e-08  5682s
  73   7.17778931e+05  7.17778923e+05  8.72e-06 6.46e-10  2.78e-08  5950s
  74   7.17778931e+05  7.17778924e+05  8.26e-06 2.31e-10  2.51e-08  6211s

Barrier solved model in 74 iterations and 6210.81 seconds (7310.93 work units)
Optimal objective 7.17778931e+05

